20 4
59 25 105 63 31 23 89 42 13 113 56 44 56 60 78 61 65 26 54 83
67 15 108 54 31 48 71 13 21 110 73 35 61 56 72 44 81 28 54 64
73 34 83 61 46 37 78 34 20 89 75 43 52 51 75 49 71 38 38 68
56 16 85 53 33 43 75 23 7 95 51 50 67 58 79 64 71 38 46 82
